experiment/data/lkh-res/Vrp-Set-P-n55/Vrp-Set-P-n55-lkh/1.lkh1.log
PARAMETER_FILE = baseline_results/cvrp_lkh/Vrp-Set-P-n55/Vrp-Set-P-n55-lkh/1.lkh1.par
Reading PROBLEM_FILE: "baseline_results/cvrp_lkh/Vrp-Set-P-n55/Vrp-Set-P-n55-lkh/1.lkh1.vrp" ... done
ASCENT_CANDIDATES = 50
BACKBONE_TRIALS = 0
BACKTRACKING = NO
# BWTSP =
# CANDIDATE_FILE =
CANDIDATE_SET_TYPE = ALPHA
# DISTANCE =
DEPOT = 1
# EDGE_FILE =
EXCESS = 0.0181818
EXTERNAL_SALESMEN = 0
EXTRA_CANDIDATES = 0 
EXTRA_CANDIDATE_SET_TYPE = QUADRANT
GAIN23 = NO
GAIN_CRITERION = YES
INITIAL_PERIOD = 100
INITIAL_STEP_SIZE = 1
INITIAL_TOUR_ALGORITHM = WALK
# INITIAL_TOUR_FILE = 
INITIAL_TOUR_FRACTION = 1.000
# INPUT_TOUR_FILE = 
KICK_TYPE = 4
KICKS = 1
# MAX_BREADTH =
MAKESPAN = NO
MAX_CANDIDATES = 5 
MAX_SWAPS = 0
MAX_TRIALS = 10000
# MERGE_TOUR_FILE =
MOVE_TYPE = 5 SPECIAL
MTSP_MIN_SIZE = 1
MTSP_MAX_SIZE = 54
# MTSP_SOLUTION_FILE = 
# NONSEQUENTIAL_MOVE_TYPE = 5
# OPTIMUM =
OUTPUT_TOUR_FILE = baseline_results/cvrp_lkh/Vrp-Set-P-n55/Vrp-Set-P-n55-lkh/1.lkh1.tour
PATCHING_A = 1 
PATCHING_C = 0 
# PI_FILE = 
POPMUSIC_INITIAL_TOUR = NO
POPMUSIC_MAX_NEIGHBORS = 5
POPMUSIC_SAMPLE_SIZE = 10
POPMUSIC_SOLUTIONS = 50
POPMUSIC_TRIALS = 1
POPULATION_SIZE = 10
PRECISION = 100
PROBLEM_FILE = baseline_results/cvrp_lkh/Vrp-Set-P-n55/Vrp-Set-P-n55-lkh/1.lkh1.vrp
RECOMBINATION = IPT
RESTRICTED_SEARCH = YES
RUNS = 1
SALESMEN = 15
SCALE = 1
SEED = 1234
# SINTEF_SOLUTION_FILE = 
STOP_AT_OPTIMUM = YES
SUBGRADIENT = YES
# SUBPROBLEM_SIZE =
# SUBPROBLEM_TOUR_FILE = 
SUBSEQUENT_MOVE_TYPE = 5 SPECIAL
SUBSEQUENT_PATCHING = YES
# TIME_LIMIT =
# TOTAL_TIME_LIMIT =
# TOUR_FILE = 
TRACE_LEVEL = 1
VEHICLES = 15

Lower bound = 66541.0, Ascent time = 0.01 sec.
Cand.min = 5, Cand.avg = 5.0, Cand.max = 5
Preprocessing time = 0.01 sec.
* 1: Cost = 0_116730, Time = 0.03 sec. 
Writing OUTPUT_TOUR_FILE: "baseline_results/cvrp_lkh/Vrp-Set-P-n55/Vrp-Set-P-n55-lkh/1.lkh1.tour" ... done
* 2: Cost = 0_112868, Time = 0.05 sec. 
Writing OUTPUT_TOUR_FILE: "baseline_results/cvrp_lkh/Vrp-Set-P-n55/Vrp-Set-P-n55-lkh/1.lkh1.tour" ... done
* 3: Cost = 0_111227, Time = 0.05 sec. 
Writing OUTPUT_TOUR_FILE: "baseline_results/cvrp_lkh/Vrp-Set-P-n55/Vrp-Set-P-n55-lkh/1.lkh1.tour" ... done
* 6: Cost = 0_110308, Time = 0.10 sec. 
Writing OUTPUT_TOUR_FILE: "baseline_results/cvrp_lkh/Vrp-Set-P-n55/Vrp-Set-P-n55-lkh/1.lkh1.tour" ... done
* 8: Cost = 0_107537, Time = 0.15 sec. 
Writing OUTPUT_TOUR_FILE: "baseline_results/cvrp_lkh/Vrp-Set-P-n55/Vrp-Set-P-n55-lkh/1.lkh1.tour" ... done
* 11: Cost = 0_106701, Time = 0.19 sec. 
Writing OUTPUT_TOUR_FILE: "baseline_results/cvrp_lkh/Vrp-Set-P-n55/Vrp-Set-P-n55-lkh/1.lkh1.tour" ... done
* 17: Cost = 0_106695, Time = 0.22 sec. 
Writing OUTPUT_TOUR_FILE: "baseline_results/cvrp_lkh/Vrp-Set-P-n55/Vrp-Set-P-n55-lkh/1.lkh1.tour" ... done
* 18: Cost = 0_104942, Time = 0.23 sec. 
Writing OUTPUT_TOUR_FILE: "baseline_results/cvrp_lkh/Vrp-Set-P-n55/Vrp-Set-P-n55-lkh/1.lkh1.tour" ... done
* 21: Cost = 0_104138, Time = 0.27 sec. 
Writing OUTPUT_TOUR_FILE: "baseline_results/cvrp_lkh/Vrp-Set-P-n55/Vrp-Set-P-n55-lkh/1.lkh1.tour" ... done
* 24: Cost = 0_103977, Time = 0.29 sec. 
Writing OUTPUT_TOUR_FILE: "baseline_results/cvrp_lkh/Vrp-Set-P-n55/Vrp-Set-P-n55-lkh/1.lkh1.tour" ... done
* 28: Cost = 0_103512, Time = 0.30 sec. 
Writing OUTPUT_TOUR_FILE: "baseline_results/cvrp_lkh/Vrp-Set-P-n55/Vrp-Set-P-n55-lkh/1.lkh1.tour" ... done
* 77: Cost = 0_103451, Time = 0.71 sec. 
Writing OUTPUT_TOUR_FILE: "baseline_results/cvrp_lkh/Vrp-Set-P-n55/Vrp-Set-P-n55-lkh/1.lkh1.tour" ... done
* 157: Cost = 0_103381, Time = 1.38 sec. 
Writing OUTPUT_TOUR_FILE: "baseline_results/cvrp_lkh/Vrp-Set-P-n55/Vrp-Set-P-n55-lkh/1.lkh1.tour" ... done
* 556: Cost = 0_103370, Time = 5.34 sec. 
Writing OUTPUT_TOUR_FILE: "baseline_results/cvrp_lkh/Vrp-Set-P-n55/Vrp-Set-P-n55-lkh/1.lkh1.tour" ... done
* 559: Cost = 0_103169, Time = 5.39 sec. 
Writing OUTPUT_TOUR_FILE: "baseline_results/cvrp_lkh/Vrp-Set-P-n55/Vrp-Set-P-n55-lkh/1.lkh1.tour" ... done
* 577: Cost = 0_103124, Time = 5.51 sec. 
Writing OUTPUT_TOUR_FILE: "baseline_results/cvrp_lkh/Vrp-Set-P-n55/Vrp-Set-P-n55-lkh/1.lkh1.tour" ... done
* 586: Cost = 0_103106, Time = 5.59 sec. 
Writing OUTPUT_TOUR_FILE: "baseline_results/cvrp_lkh/Vrp-Set-P-n55/Vrp-Set-P-n55-lkh/1.lkh1.tour" ... done
* 597: Cost = 0_102166, Time = 5.71 sec. 
Writing OUTPUT_TOUR_FILE: "baseline_results/cvrp_lkh/Vrp-Set-P-n55/Vrp-Set-P-n55-lkh/1.lkh1.tour" ... done
* 612: Cost = 0_102145, Time = 5.93 sec. 
Writing OUTPUT_TOUR_FILE: "baseline_results/cvrp_lkh/Vrp-Set-P-n55/Vrp-Set-P-n55-lkh/1.lkh1.tour" ... done
* 617: Cost = 0_102142, Time = 6.00 sec. 
Writing OUTPUT_TOUR_FILE: "baseline_results/cvrp_lkh/Vrp-Set-P-n55/Vrp-Set-P-n55-lkh/1.lkh1.tour" ... done
* 628: Cost = 0_101053, Time = 6.17 sec. 
Writing OUTPUT_TOUR_FILE: "baseline_results/cvrp_lkh/Vrp-Set-P-n55/Vrp-Set-P-n55-lkh/1.lkh1.tour" ... done
* 634: Cost = 0_99993, Time = 6.24 sec. 
Writing OUTPUT_TOUR_FILE: "baseline_results/cvrp_lkh/Vrp-Set-P-n55/Vrp-Set-P-n55-lkh/1.lkh1.tour" ... done
* 670: Cost = 0_99987, Time = 6.60 sec. 
Writing OUTPUT_TOUR_FILE: "baseline_results/cvrp_lkh/Vrp-Set-P-n55/Vrp-Set-P-n55-lkh/1.lkh1.tour" ... done
* 744: Cost = 0_99951, Time = 7.36 sec. 
Writing OUTPUT_TOUR_FILE: "baseline_results/cvrp_lkh/Vrp-Set-P-n55/Vrp-Set-P-n55-lkh/1.lkh1.tour" ... done
* 882: Cost = 0_99873, Time = 9.11 sec. 
Writing OUTPUT_TOUR_FILE: "baseline_results/cvrp_lkh/Vrp-Set-P-n55/Vrp-Set-P-n55-lkh/1.lkh1.tour" ... done
* 920: Cost = 0_99098, Time = 9.47 sec. 
Writing OUTPUT_TOUR_FILE: "baseline_results/cvrp_lkh/Vrp-Set-P-n55/Vrp-Set-P-n55-lkh/1.lkh1.tour" ... done
Population:
  1: 0_99098
Run 1: Cost = 0_99098, Time = 111.42 sec. 

Successes/Runs = 0/1 
Cost.min = 99098, Cost.avg = 99098.00, Cost.max = 99098
Gap.min = 0.0000%, Gap.avg = 0.0000%, Gap.max = 0.0000%
Penalty.min = 0, Penalty.avg = 0.00, Penalty.max = 0
Trials.min = 10000, Trials.avg = 10000.0, Trials.max = 10000
Time.min = 111.42 sec., Time.avg = 111.42 sec., Time.max = 111.42 sec.
Time.total = 111.43 sec.
  Size.min = 2, Size.max = 5, Penalty = 0
  Cost.min = 3195, Cost.max = 9582, Cost.sum = 99098
Best CVRP solution:
  Cost = 0_99098

