experiment/data/lkh-res/Vrp-Set-P-n55/Vrp-Set-P-n55-lkh/1.lkh1.tour
NAME : 1.99098.tour
COMMENT : Length = 99098
COMMENT : Found by LKH-3 [Keld Helsgaun] Tue Apr  9 02:39:24 2024
TYPE : TOUR
DIMENSION : 69
TOUR_SECTION
1
5
46
35
58
44
42
24
17
52
60
47
9
36
8
66
31
22
49
68
2
43
23
29
56
11
39
27
69
33
51
7
57
18
41
13
61
28
55
20
54
64
15
12
62
48
37
16
14
53
65
30
21
38
6
63
26
19
25
50
4
59
45
34
3
67
40
32
10
-1
EOF
